
;this file is automatically generated: Fri Jan 03 16:26:56 GMT 2020

;declarations generated

(declare-fun oclExcludes ( Int Int) Bool)
(declare-fun class8_Class8IntAttr2 ( Int) Int)
(declare-fun class8_Class8IntAttr3 ( Int) Int)
(declare-fun Cardinality ( Int) Int)
(declare-fun type_96d41dfb_2b19_4790_9634_431470418085_Class8 ( Int) Bool)
(declare-fun class8_Class8BoolAttr1 ( Int) Bool)
(declare-fun class8_Class8BoolAttr0 ( Int) Bool)
(declare-fun oclSelect ( Int Bool) Int)
(declare-fun obj_2bc6cadb_e496_48eb_8fa6_103098f0e9f0 ( Int) Int)
(declare-fun Enum0 ( Int) Int)
(declare-fun Enum1 ( Int) Int)
(declare-fun Enum2 ( Int) Int)
(declare-fun container_ ( Int) Int)
(declare-fun oclIncludes ( Int Int) Bool)
(declare-fun ObjAt ( Int Int) Int)

;formula(s) generated
(assert (forall ((p Int)) (=> ( type_96d41dfb_2b19_4790_9634_431470418085_Class8 p )  (and (>= ( Enum2 ( obj_2bc6cadb_e496_48eb_8fa6_103098f0e9f0 p )  )  0) (<= ( Enum2 ( obj_2bc6cadb_e496_48eb_8fa6_103098f0e9f0 p )  )  6)))))
(assert (forall ((p Int)) (=> ( type_96d41dfb_2b19_4790_9634_431470418085_Class8 p )  (and (>= ( Enum1 ( obj_2bc6cadb_e496_48eb_8fa6_103098f0e9f0 p )  )  0) (<= ( Enum1 ( obj_2bc6cadb_e496_48eb_8fa6_103098f0e9f0 p )  )  5)))))
(assert (forall ((p Int)) (=> ( type_96d41dfb_2b19_4790_9634_431470418085_Class8 p )  (and (>= ( Enum1 ( obj_2bc6cadb_e496_48eb_8fa6_103098f0e9f0 p )  )  0) (<= ( Enum1 ( obj_2bc6cadb_e496_48eb_8fa6_103098f0e9f0 p )  )  5)))))
(assert (! (forall ((c8_2 Int)(c8_1 Int)) (=> (and ( type_96d41dfb_2b19_4790_9634_431470418085_Class8 c8_1 )  ( type_96d41dfb_2b19_4790_9634_431470418085_Class8 c8_2 ) ) (not (= ( class8_Class8IntAttr2 ( obj_2bc6cadb_e496_48eb_8fa6_103098f0e9f0 c8_1 )  )  ( class8_Class8IntAttr3 ( obj_2bc6cadb_e496_48eb_8fa6_103098f0e9f0 c8_2 )  ) ) ))):named l0))
(assert (! (forall ((v Int)) (=> ( type_96d41dfb_2b19_4790_9634_431470418085_Class8 v )  (or (> ( class8_Class8IntAttr3 ( obj_2bc6cadb_e496_48eb_8fa6_103098f0e9f0 v )  )  19) (and (forall ((v Int)) (=> ( type_96d41dfb_2b19_4790_9634_431470418085_Class8 v )  (= ( Enum1 ( obj_2bc6cadb_e496_48eb_8fa6_103098f0e9f0 v )  )  0))) (forall ((v Int)) (=> ( type_96d41dfb_2b19_4790_9634_431470418085_Class8 v )  (>= ( class8_Class8IntAttr2 ( obj_2bc6cadb_e496_48eb_8fa6_103098f0e9f0 v )  )  13))))))):named l1))
(assert (! (forall ((v Int)) (=> ( type_96d41dfb_2b19_4790_9634_431470418085_Class8 v )  (or (not (= ( Enum1 ( obj_2bc6cadb_e496_48eb_8fa6_103098f0e9f0 v )  )  0) ) (or (forall ((v Int)) (=> ( type_96d41dfb_2b19_4790_9634_431470418085_Class8 v )  (< ( class8_Class8IntAttr3 ( obj_2bc6cadb_e496_48eb_8fa6_103098f0e9f0 v )  )  15))) (forall ((v Int)) (=> ( type_96d41dfb_2b19_4790_9634_431470418085_Class8 v )  (>= ( class8_Class8IntAttr2 ( obj_2bc6cadb_e496_48eb_8fa6_103098f0e9f0 v )  )  18))))))):named l2))
(assert (! (exists ((c1 Int)) (and ( type_96d41dfb_2b19_4790_9634_431470418085_Class8 c1 )  (not ( class8_Class8BoolAttr1 ( obj_2bc6cadb_e496_48eb_8fa6_103098f0e9f0 c1 )  )  ))):named l3))
(assert (! (or (forall ((v Int)) (=> ( type_96d41dfb_2b19_4790_9634_431470418085_Class8 v )  ( class8_Class8BoolAttr0 ( obj_2bc6cadb_e496_48eb_8fa6_103098f0e9f0 v )  ) )) (forall ((v Int)) (=> ( type_96d41dfb_2b19_4790_9634_431470418085_Class8 v )  (or (= ( class8_Class8IntAttr2 ( obj_2bc6cadb_e496_48eb_8fa6_103098f0e9f0 v )  )  10) (and (forall ((v Int)) (=> ( type_96d41dfb_2b19_4790_9634_431470418085_Class8 v )  ( class8_Class8BoolAttr1 ( obj_2bc6cadb_e496_48eb_8fa6_103098f0e9f0 v )  ) )) (forall ((c8_2 Int)(c8_1 Int)) (=> (and ( type_96d41dfb_2b19_4790_9634_431470418085_Class8 c8_1 )  ( type_96d41dfb_2b19_4790_9634_431470418085_Class8 c8_2 ) ) (< ( class8_Class8IntAttr2 ( obj_2bc6cadb_e496_48eb_8fa6_103098f0e9f0 c8_1 )  )  ( class8_Class8IntAttr3 ( obj_2bc6cadb_e496_48eb_8fa6_103098f0e9f0 c8_2 )  ) )))))))):named l4))
(assert (! (forall ((v Int)) (=> ( type_96d41dfb_2b19_4790_9634_431470418085_Class8 v )  (or (not (= ( Enum2 ( obj_2bc6cadb_e496_48eb_8fa6_103098f0e9f0 v )  )  4) ) (and (forall ((v Int)) (=> ( type_96d41dfb_2b19_4790_9634_431470418085_Class8 v )  (> ( class8_Class8IntAttr2 ( obj_2bc6cadb_e496_48eb_8fa6_103098f0e9f0 v )  )  16))) (forall ((v Int)) (=> ( type_96d41dfb_2b19_4790_9634_431470418085_Class8 v )  (> ( class8_Class8IntAttr3 ( obj_2bc6cadb_e496_48eb_8fa6_103098f0e9f0 v )  )  4))))))):named l5))
(assert (! (forall ((c8_2 Int)(c8_1 Int)) (=> (and ( type_96d41dfb_2b19_4790_9634_431470418085_Class8 c8_1 )  ( type_96d41dfb_2b19_4790_9634_431470418085_Class8 c8_2 ) ) (<= ( class8_Class8IntAttr2 ( obj_2bc6cadb_e496_48eb_8fa6_103098f0e9f0 c8_1 )  )  ( class8_Class8IntAttr3 ( obj_2bc6cadb_e496_48eb_8fa6_103098f0e9f0 c8_2 )  ) ))):named l6))
(assert (! (forall ((c8_2 Int)(c8_1 Int)) (=> (and ( type_96d41dfb_2b19_4790_9634_431470418085_Class8 c8_1 )  ( type_96d41dfb_2b19_4790_9634_431470418085_Class8 c8_2 ) ) (> ( class8_Class8IntAttr2 ( obj_2bc6cadb_e496_48eb_8fa6_103098f0e9f0 c8_1 )  )  ( class8_Class8IntAttr3 ( obj_2bc6cadb_e496_48eb_8fa6_103098f0e9f0 c8_2 )  ) ))):named l7))
(assert (! (forall ((c1 Int)(c2 Int)) (=> (and ( type_96d41dfb_2b19_4790_9634_431470418085_Class8 c1 )  ( type_96d41dfb_2b19_4790_9634_431470418085_Class8 c2 ) ) (forall ((v Int)) (=> ( type_96d41dfb_2b19_4790_9634_431470418085_Class8 v )  (> ( class8_Class8IntAttr2 ( obj_2bc6cadb_e496_48eb_8fa6_103098f0e9f0 v )  )  ( class8_Class8IntAttr3 ( obj_2bc6cadb_e496_48eb_8fa6_103098f0e9f0 c1 )  ) ))))):named l8))
(assert (exists ((o Int)) ( type_96d41dfb_2b19_4790_9634_431470418085_Class8 ( obj_2bc6cadb_e496_48eb_8fa6_103098f0e9f0 o )  ) ))

 ;end of formula 